Traveling Salesman Problem/TSP_generados/Aleatorio1620390922_9.tsp
NAME: Aleatorio1620390922_9.tsp
COMMENT: Randomly generated scenario
TYPE: TSP
DIMENSION: 9
EDGE_WEIGHT_TYPE: ATT
NODE_COORD_SECTION
1 6.09 4.69
2 29.68 23.26
3 4.34 44.09
4 10.1 36.64
5 22.24 49.84
6 32.61 15.16
7 39.63 32.6
8 28.86 12.1
9 45.94 8.65
