Traveling Salesman Problem/TSP_generados/Aleatorio1620390922_9.opt.tour
NAME: Aleatorio1620390922_9.opt.tour
COMMENT: Optimal solution for Aleatorio1620390922_9 (163.37147741768658)
TYPE: TOUR
DIMENSION: 9
TOUR_SECTION
1 4 3 5 7 2 6 9 8
-1
EOF
